91.5 101.5 104.5 105.5 125.5 123.5 100.5 120.5 124.5 118.5 107.5 122.5 121.5 107.5 120.5 130.5 124.5 138.5 152.5 151.5 168.5 140.5 141.5 127.5 160.5 142.5 140.5 167.5 167.5 159.5 138.5 168.5 162.5 158.5 169.5 160.5 161.5 190.5 178.5 164.5 178.5 187.5 175.5 191.5 187.5 170.5 170.5 169.5 171.5 196.5 174.5 200.5 193.5 213.5 195.5 190.5 214.5 218.5 218.5 210.5